
(set-logic ALL) 

(declare-datatype MyList ((Nil) (Cons (head Real) (tail MyList)) )) 
(declare-fun l0 () MyList) 
(declare-fun l1 () MyList) 
(declare-fun l2 () MyList) 
(declare-fun l3 () MyList) 
(declare-fun i0 () Real) 
(declare-fun i1 () Real) 
(assert (not (= l1 Nil)) )
(assert (= l3 l2) )
(assert (is-Nil l0) )
(assert (is-Cons Nil) )
(assert (or (is-Cons Nil) (= l0 Nil) (= l1 Nil) (is-Cons Nil)) )
(assert (= l0 Nil) )
(assert (= l2 Nil) )
(assert (= l2 Nil) )
(check-sat)
